SystemName           C60
SystemLabel          c60linres

NumberOfSpecies 1

%block chemicalspecieslabel
1  6 C 12.0107
%endblock chemicalspecieslabel

PAO.BasisSize SZ

MeshCutoff 130.0 Ry
DM.MixingWeight  0.2
DM.NumberPulay    3
DM.Tolerance     1.0d-4

NumberOfAtoms        60

AtomicCoordinatesFormat   Ang

%block AtomicCoordinatesAndAtomicSpecies
    2.29304783    0.62476973    2.76325237   1       1  C
    3.22716944    0.18679531    1.68355298   1       2  C
    1.38381814   -0.31987918    3.35285120   1       3  C
    3.21744325   -1.17913486    1.23362475   1       4  C
    3.31873967   -1.48618867   -0.22396072   1       5  C
    3.34017761    1.29808799    0.69262428   1       6  C
    3.43766032    1.00176951   -0.71098240   1       7  C
    3.42645592   -0.41620040   -1.17800311   1       8  C
   -0.47192776    1.41130192    3.33135793   1       9  C
    0.47259344    2.39243206    2.71955731   1      10  C
   -0.02483378    0.08051424    3.64259442   1      11  C
    1.82952067    2.00713154    2.44067372   1      12  C
    2.47634868    2.42323565    1.16078093   1      13  C
   -0.28984127    3.20982307    1.72983520   1      14  C
    0.33240755    3.61056408    0.49688809   1      15  C
    1.74160279    3.20946931    0.20725014   1      16  C
   -2.20249006   -0.88741363    2.76809845   1      17  C
   -2.66724459    0.49479535    2.44505362   1      18  C
   -0.90550598   -1.09057740    3.35521326   1      19  C
   -1.81840541    1.62210457    2.72115529   1      20  C
   -1.70554662    2.73394502    1.73062765   1      21  C
   -3.43516210    0.43630382    1.16558855   1      22  C
   -3.32707703    1.50677629    0.21155136   1      23  C
   -2.44596061    2.67777412    0.49932528   1      24  C
   -0.50432261   -3.09474231    1.84958463   1      25  C
   -1.84996167   -2.88109723    1.23792772   1      26  C
   -0.04050685   -2.21497623    2.88826716   1      27  C
   -2.68357011   -1.79941495    1.68860499   1      28  C
   -3.44547329   -0.98171086    0.69846710   1      29  C
   -1.74778900   -3.18870308   -0.21970295   1      30  C
   -2.48235753   -2.40189406   -1.17285461   1      31  C
   -3.34672099   -1.27811733   -0.70502683   1      32  C
    2.27369351   -2.16087631    1.84677247   1      33  C
    1.79176518   -3.07460427    0.76777130   1      34  C
    1.37476218   -1.73884467    2.88666701   1      35  C
    0.42907885   -3.53331059    0.76917871   1      36  C
   -0.33943176   -3.59082523   -0.51004576   1      37  C
    2.43761356   -2.65693632   -0.51205769   1      38  C
    1.69880167   -2.71504422   -1.74412253   1      39  C
    0.28312291   -3.19014026   -1.74280378   1      40  C
   -2.30131259   -0.60367489   -2.77553404   1      41  C
   -1.83673343   -1.98610173   -2.45335490   1      42  C
   -0.48001837   -2.37291354   -2.73265655   1      43  C
   -1.39268303    0.34038677   -3.36716830   1      44  C
   -2.28093354    2.18114970   -1.86021042   1      45  C
   -3.22540399    1.20025100   -1.24642898   1      46  C
   -3.23549843   -0.16599105   -1.69569858   1      47  C
   -1.38199980    1.75875268   -2.90009053   1      48  C
    0.49786328    3.11309523   -1.86212016   1      49  C
   -0.43598417    3.55172709   -0.78215647   1      50  C
   -1.79937567    3.09478771   -0.78090573   1      51  C
    0.03364577    2.23375934   -2.90074454   1      52  C
    2.19330810    0.90665879   -2.77990883   1      53  C
    2.67653592    1.81967761   -1.70146210   1      54  C
    1.84372188    2.90191189   -1.25049438   1      55  C
    0.89728578    1.10927550   -3.36838862   1      56  C
    0.46412213   -1.39148782   -3.34483999   1      57  C
    1.81081355   -1.60319769   -2.73487500   1      58  C
    2.65850784   -0.47536544   -2.45737894   1      59  C
    0.01611326   -0.06130969   -3.65662149   1      60  C
%endblock AtomicCoordinatesAndAtomicSpecies

LongOutput            T
AtomCoorFormatOut  Ang

MD.TypeOfRun   LR
MD.FCfirst          1
MD.FClast           1

