# General system specifications ....
SystemName    diamond
SystemLabel   diamond

NumberOfAtoms    2
NumberOfSpecies  1

%block ChemicalSpeciesLabel
    1   6  C
%endblock ChemicalSpeciesLabel

# Structural parameters...

LatticeConstant 3.551 Ang
%block LatticeVectors
  0.500  0.500  0.000
  0.000  0.500  0.500
  0.500  0.000  0.500
%endblock LatticeVectors

AtomicCoordinatesFormat fractional

%block AtomicCoordinatesAndAtomicSpecies
    0.    0.    0.     1   C        1
    0.25  0.25  0.25   1   C        2
%endblock AtomicCoordinatesAndAtomicSpecies

# Simulation parameters ...

SolutionMethod         diagon

XC.Functional          LDA
XC.Authors             CA
SpinPolarized          .true.

DM.MixingWeight        0.100     # New DM amount for next SCF cycle
DM.NumberPulay         3
DM.Tolerance           5.0d-5

DM.UseSaveDM         .true.
UseSaveData              T     # default value

# Basis set definition...

PAO.BasisSize        DZP
PAO.EnergyShift       10 meV


# Real space grid...

MeshCutoff           140.0 Ry

# K-sampling (using Monkhorst-Pack allows a better fit to the reduced dimensionality)

%block kgrid_Monkhorst_Pack
  4  0  0    0.0
  0  4  0    0.0
  0  0  4    0.0
%endblock kgrid_Monkhorst_Pack

WriteKbands    .true.
WriteBands    .true.

BandLinesScale  pi/a
%block BandLines                  # These are comments
 1  1.000  1.000  1.000     L     # 15 points from W to L
20  0.000  0.000  0.000  \Gamma   # 20 points from L to Gamma
25  2.000  0.000  0.000     X     # 25 points from Gamma to X
25  2.000  0.500  0.500     U     # 25 points from Gamma to K
20  2.000  2.000  2.000  \Gamma   # 20 points from L to Gamma
%endblock BandLines

