SystemName  O-SLAB 
SystemLabel O-SLAB 


################################################################

xc.functional GGA 
xc.authors PBE 
Atom.Ignore.Ghosts

MeshCutoff 100.0 Ry

Saverho .true.
SolutionMethod diagon
#UseBIGDFTsolver .true.
#SolutionMethod OMM 
#ElectronicTemperature       5 meV
#AnalyzeChargeDensityOnly  .true.
SaveElectrostaticPotential .true.

DM.MixingWeight 0.1
DM.NumberPulay 10

################################################################

#TDED.WF.Initialize
#SaveElectrostaticPotential .true. 
#
#%block ExternalElectricField
#0.000    0.000  0.010  har/bohr/e 
##0.200  -0.200  0.000  V/Ang
#%endblock ExternalElectricField

###############################################################
NumberOfAtoms 12 
NumberOfSpecies 1
MaxSCFIterations 400

%block ChemicalSpeciesLabel
1 8 O_PBE
%endblock ChemicalSpeciesLabel

PAO.BasisSize DZP

LatticeConstant 4.0 Ang

%block LatticeVectors
1.0 0.0 0.0
0.0 5.0 0.0
0.0 0.0 1.0
%endblock LatticeVectors
%block kgrid_Monkhorst_Pack
  2 0 0  0.5
  0 1 0  0.5
  0 0 2  0.5
%endblock Kgrid_Monkhorst_Pack

AtomicCoordinatesFormat NotScaledCartesianAng

%block AtomicCoordinatesAndAtomicSpecies
 1.00000000000000000000 8.00000000000000000000 1.00000000000000000000 1   
 1.00000000000000000000 8.00000000000000000000 3.00000000000000000000 1 
 3.00000000000000000000 8.00000000000000000000 1.00000000000000000000 1
 3.00000000000000000000 8.00000000000000000000 3.00000000000000000000 1
 1.00000000000000000000 10.00000000000000000000 1.00000000000000000000 1
 1.00000000000000000000 10.00000000000000000000 3.00000000000000000000 1
 3.00000000000000000000 10.00000000000000000000 1.00000000000000000000 1
 3.00000000000000000000 10.00000000000000000000 3.00000000000000000000 1
 1.00000000000000000000 12.00000000000000000000 1.00000000000000000000 1
 1.00000000000000000000 12.00000000000000000000 3.00000000000000000000 1
 3.00000000000000000000 12.00000000000000000000 1.00000000000000000000 1
 3.00000000000000000000 12.00000000000000000000 3.00000000000000000000 1
%endblock AtomicCoordinatesAndAtomicSpecies
#NumberOfEigenStates  10 
