# 
# FDF for a BN sheet ONLY FOR VIBRA
# TO obtain the FC matrix, run the BNlin.fdf system 
# 

SystemName          BN-2 atom
SystemLabel         BN

NumberOfSpecies     2
NumberOfAtoms       2


%block ChemicalSpeciesLabel
 1  5  B 10.811
 2  7  N 14.0067
%endblock ChemicalSpeciesLabel

PAO.BasisSize       SZ
XC.functional LDA
XC.authors    CA

MeshCutoff          200.0 Ry
MaxSCFIterations    500  
DM.MixingWeight      0.1 
DM.NumberPulay       5  
DM.Tolerance         1.d-5           
SolutionMethod       diagon 
DM.UseSaveDM  	     .true.	   

SuperCell_1          1
SuperCell_2          1
SuperCell_3          0

AtomicCoordinatesFormat  ScaledCartesian
%block AtomicCoordinatesAndAtomicSpecies
	-0.00000027   -0.00000047   -0.00000000   1  10.811
	1.26872886    0.73250124   -0.00000000   2 14.0067
%endblock AtomicCoordinatesAndAtomicSpecies

%block kgrid_Monkhorst_Pack
	6	0	0	0.0
	0	6	0	0.0
	0	0	1	0.0
%endblock kgrid_Monkhorst_Pack

LatticeConstant     1 Ang
%block LatticeVectors
        2.537457   -0.000000    0.000000
        1.268729    2.197503   -0.000000
        0.000000   -0.000000    6.679152
%endblock LatticeVectors

BandLinesScale	ReciprocalLatticeVectors
%block BandLines
 1   0.0	0.0	0.5 	A
 50  0.0000000000     0.0000000000     0.0000000000     gama
 50 0.5 0  0	M
 50 0.6666666     0.33333333          0.0000000000     K
 50  0.0000000000     0.0000000000     0.0000000000     gama
%endblock BandLines

