# -----------------------------------------------------------------------------
#
#

SystemName          bulk silicon with test of various types of WFS output
SystemLabel         si_fatbands

NumberOfAtoms       2
NumberOfSpecies     1

%block ChemicalSpeciesLabel
 1  14  Si 28.0855
%endblock ChemicalSpeciesLabel

PAO.BasisSize       DZP
PAO.EnergyShift     300 meV

LatticeConstant    5.43 Ang
%block LatticeVectors
  0.500  0.500  0.000
  0.000  0.500  0.500
  0.500  0.000  0.500
%endblock LatticeVectors

MeshCutoff          90.0 Ry

MaxSCFIterations    50  
DM.MixingWeight      0.3 
DM.NumberPulay       3  
DM.Tolerance         1.d-4

SolutionMethod       diagon    
ElectronicTemperature  25 meV  

AtomicCoordinatesFormat  Fractional
%block AtomicCoordinatesAndAtomicSpecies
    0.    0.    0.     1  Si        1
    0.25  0.25  0.25   1  Si        2
%endblock AtomicCoordinatesAndAtomicSpecies

MD.TypeOfRun	LR
MD.FCfirst	1
MD.FCLast	2
