#General system specifications
SystemName          CH4 molecule -- test mixing options
SystemLabel         ch4-mix
NumberOfAtoms       5
NumberOfSpecies     2

%block ChemicalSpeciesLabel
 1  6 C   # Species index, atomic number, species label
 2  1 H   # Species index, atomic number, species label
%endblock ChemicalSpeciesLabel

#Unit cell for the calculation
LatticeConstant 15 Ang
%block LatticeVectors 
  1.000 0.000 0.000
  0.000 1.000 0.000
  0.000 0.000 1.000
%endblock LatticeVectors

#Atomic coordinates
AtomicCoordinatesFormat  Ang

%block AtomicCoordinatesAndAtomicSpecies
  0.000      0.000      0.000   1
  1.219     -0.284     -0.377   2 
 -0.284      1.219     -0.377   2 
 -0.140     -0.140      1.219   2 
 -0.833     -0.833     -0.503   2 
%endblock AtomicCoordinatesAndAtomicSpecies

# Basis set definition
PAO.EnergyShift 250 meV
PAO.SplitNorm   0.15
PAO.BasisSize   DZP

#Real space grid 
MeshCutoff 125.0 Ry

# Convergence of SCF 
MaxSCFIterations 10

SCF.mix density
SCF.mixer.method linear
SCF.mixer.weight 0.6

# Type of solution
SolutionMethod diagon





