# Si(100) - asymmetric 2x1 reconstruction
# No need for dipole correction when using PSolver
# Oscar Paz / Pablo Ordejon

SystemName              Si(100)-2x1 3 layers (H-saturated)
SystemLabel             si2x1h-psolver

Poisson.Method psolver

NumberOfSpecies 2
%block ChemicalSpeciesLabel
        1       14      Si
        2       1       H
%endblock ChemicalSpeciesLabel

PAO.BasisType           split
PAO.BasisSize            SZ

PAO.EnergyShift 200 meV
PAO.SplitNorm           0.30

LatticeConstant 1.0 Ang
%block LatticeVectors
 3.81840000 0.00000000 0.00000000
 0.00000000 11.4552000 0.00000000
 0.00000000 0.00000000 7.63680000
%endblock LatticeVectors

AtomicCoordinatesFormat ScaledCartesian
# Center coordinates along Y
# This is a requirement of PSolver
AtomicCoordinatesOrigin COP-Y

%block AtomicCoordinatesAndAtomicSpecies
 -0.00009057  0.72589262  1.11979804 1 #  1: Si
  0.00005105  0.08420382  3.26036199 1 #  2: Si
  1.90911397  1.26041157 -0.02005111 1 #  3: Si
  1.90924185  1.31364014  3.73976124 1 #  4: Si
  1.90920000  2.69999064  1.90920000 1 #  5: Si
  1.90920000  2.69999064  5.72760000 1 #  6: Si
  0.77131680  3.64542648  1.90920000 2 #  7: H
  3.04708320  3.64542648  1.90920000 2 #  8: H
  0.77131680  3.64542648  5.72760000 2 #  9: H
  3.04708320  3.64542648  5.72760000 2 # 10: H
%endblock AtomicCoordinatesAndAtomicSpecies

%block GeometryConstraints
        position from 5 to 10
%endblock GeometryConstraints

kgrid_cutoff            5.0 Ang

XC.functional           LDA
XC.authors              PZ

MeshCutoff              50. Ry

DM.MixingWeight 0.1
DM.NumberPulay  3
SolutionMethod  diagon

MD.TypeOfRun            CG
MD.NumCGsteps           0
MD.MaxCGDispl           0.02 Ang
MD.MaxForceTol  0.02 eV/Ang
WriteCoorStep           .true.
WriteForces             .true.

WriteMullikenPop        1

DM.UseSaveDM            .true.
