NumberOfAtoms 40
NumberOfSpecies 1

%block ChemicalSpeciesLabel
1       6      C
%endblock ChemicalSpeciesLabel

PAO.EnergyShift 500 meV
PAO.BasisSize DZ

SolutionMethod LIBOMM # Cubic-scaling OMM using libOMM library
OMM.PreconFirstStep 3 # Number of SCF steps in the first MD step for which to apply preconditioning
#OMM.Precon -1        # Number of SCF steps of all MD steps for which to apply preconditioning
OMM.TPreconScale 10 Ry # Scale for kinetic energy preconditioning
OMM.LongOutput true   # Write detailed information for each SCF step to libOMM.log
OMM.Use2D true        # Use 2D data decomposition for parallelization
OMM.Eta -3.8506 eV    # Eta similar to the one for Kim's method
OMM.RelTol 1.d-7      # Relative tolerance for CG energy minimization
OMM.GTol 1.d-3        # Tolerance for gradient in CG energy minimization
OMM.WriteCoeffs true  # Write the coefficients for LWFs 
#OMM.ReadCoeffs true  # Read restart for LWFs
OMM.NumLWFs 120       # Number of LWFs considered
BlockSize 32

SCF.Mixer.Method Linear
SCF.Mixer.Weight 0.1

DM.Tolerance 1.d-4
MeshCutoff 100.0 Ry
DM.UseSaveDM true

%block LatticeVectors
  1.000  0.000  0.000
  0.000  0.3910491967  0.000
  0.000  0.000  0.3910491967
%endblock LatticeVectors
AtomicCoordinatesFormat Fractional
LatticeConstant   51.1444600000 Ang

%block AtomicCoordinatesAndAtomicSpecies
 0.0000000000    0.0000000000    0.0000000000 1
 0.0245648000    0.0000000000    0.0000000000 1
 0.0500000000    0.0000000000    0.0000000000 1
 0.0745648000    0.0000000000    0.0000000000 1
 0.1000000000    0.0000000000    0.0000000000 1
 0.1245648000    0.0000000000    0.0000000000 1
 0.1500000000    0.0000000000    0.0000000000 1
 0.1745648000    0.0000000000    0.0000000000 1
 0.2000000000    0.0000000000    0.0000000000 1
 0.2245648000    0.0000000000    0.0000000000 1
 0.2500000000    0.0000000000    0.0000000000 1
 0.2745648000    0.0000000000    0.0000000000 1
 0.3000000000    0.0000000000    0.0000000000 1
 0.3245648000    0.0000000000    0.0000000000 1
 0.3500000000    0.0000000000    0.0000000000 1
 0.3745648000    0.0000000000    0.0000000000 1
 0.4000000000    0.0000000000    0.0000000000 1
 0.4245648000    0.0000000000    0.0000000000 1
 0.4500000000    0.0000000000    0.0000000000 1
 0.4745648000    0.0000000000    0.0000000000 1
 0.5000000000    0.0000000000    0.0000000000 1
 0.5245648000    0.0000000000    0.0000000000 1
 0.5500000000    0.0000000000    0.0000000000 1
 0.5745648000    0.0000000000    0.0000000000 1
 0.6000000000    0.0000000000    0.0000000000 1
 0.6245648000    0.0000000000    0.0000000000 1
 0.6500000000    0.0000000000    0.0000000000 1
 0.6745648000    0.0000000000    0.0000000000 1
 0.7000000000    0.0000000000    0.0000000000 1
 0.7245648000    0.0000000000    0.0000000000 1
 0.7500000000    0.0000000000    0.0000000000 1
 0.7745648000    0.0000000000    0.0000000000 1
 0.8000000000    0.0000000000    0.0000000000 1
 0.8245648000    0.0000000000    0.0000000000 1
 0.8500000000    0.0000000000    0.0000000000 1
 0.8745648000    0.0000000000    0.0000000000 1
 0.9000000000    0.0000000000    0.0000000000 1
 0.9245648000    0.0000000000    0.0000000000 1
 0.9500000000    0.0000000000    0.0000000000 1
 0.9745648000    0.0000000000    0.0000000000 1
%endblock AtomicCoordinatesAndAtomicSpecies
