SystemName          Si Quantum Dot with ELSI-PEXSI
SystemLabel         si-qdot-elsi-pexsi

use-tree-timer T

DirectPhi T

solution-method elsi
elsi-solver pexsi
elsi-pexsi-tasks-per-pole 2
elsi-pexsi-number-of-poles 20
elsi-pexsi-number-of-mu-points 2
elsi-output-level 3
DM.NormalizationTolerance 1.0e-3
#--------
# For a quicker test. Remove if full test is desired
MaxSCFIterations     3
scf-must-converge F
compute-forces F
#--------

WriteDMHS.NetCDF F
WriteDM.NetCDF F
WriteDM T

%block ChemicalSpeciesLabel
 1  14  Si
 2   1  H 
%endblock ChemicalSpeciesLabel

# CSIRO quantum dot
%include coords.Si987H372.fdf

PAO.BasisSize       SZ
PAO.EnergyShift     300 meV

#
LatticeConstant     45.0 Ang
%block LatticeVectors
  1.000  0.000  0.000
  0.000  1.000  0.000
  0.000  0.000  1.000
%endblock LatticeVectors

MeshCutoff          150.0 Ry

MaxSCFIterations    40
DM.MixingWeight      0.3 
DM.NumberPulay       4  
DM.Tolerance         1.d-3
DM.UseSaveDM             

ElectronicTemperature  25 meV  
