# General system specifications ....
SystemName    graphene
SystemLabel   graphene


%block ChemicalSpeciesLabel
    1   6  C
%endblock ChemicalSpeciesLabel

# ===============================================================
# Basis set definition...

PAO.BasisSize        DZP
#PAO.EnergyShift      _ESHIFT_  meV    # You can use this flag to change the cutoff radii
                                       # Replace the symbol by a value (can be scripted)
				       
#Alternatively, you can define the cutoff radii by hand on your basis block. Like this:
#
#%block PAO.Basis        
# C     2                    #  This is a DZP basis with very long radii...
# n=2   0   2                  
#   14.086      7.519
#    1.000      1.000
# n=2   1   2 P   1           
#   14.566      7.841
#    1.000      1.000
#%endblock PAO.Basis

# ===============================================================
#
# Structural parameters...

LatticeConstant 2.476675 Ang
%block LatticeParameters
1.000  1.000  20.0  90.0  90.0  120.0
%endblock LatticeParameters

AtomicCoordinatesFormat fractional

%block AtomicCoordinatesAndAtomicSpecies
  0.33333333  0.66666667  0.5        1     # C
  0.66666667  0.33333333  0.5        1     # C
%endblock AtomicCoordinatesAndAtomicSpecies

# Simulation parameters ...

SolutionMethod         diagon

XC.Functional          LDA
XC.Authors             CA
SpinPolarized          .false.

DM.MixingWeight        0.100     # New DM amount for next SCF cycle
DM.NumberPulay         3
DM.Tolerance           5.0d-5

DM.UseSaveDM         .true.
UseSaveData              T     # default value

# Real space grid...

MeshCutoff           160.0 Ry


# K-sampling (using Monkhorst-Pack allows a better fit to the reduced dimensionality)

%block kgrid_Monkhorst_Pack
  9  0  0    0.0
  0  9  0    0.0
  0  0  1    0.0
%endblock kgrid_Monkhorst_Pack

WriteKbands    .true.
WriteBands    .true.
BandLinesScale     ReciprocalLatticeVectors

#%block Bandlines
#  1   0.5000000000   0.000000000   0.0000   M
# 30   0.0000000000   0.000000000   0.0000   \Gamma
# 60   0.3333333333   0.333333333   0.0000   K
# 30   0.5000000000   0.500000000   0.0000   M
#%endblock BandLines

# A different (equivalent) path...
%block Bandlines
  1   0.0000000000   0.000000000   0.0000   \Gamma
 60   0.3333333333   0.333333333   0.0000   K
 30   0.5000000000   0.500000000   0.0000   M
 60   0.0000000000   1.000000000   0.0000   \Gamma
%endblock BandLines
