# General system specifications ....
SystemName    graphene
SystemLabel   graphene.ghosts

NumberOfAtoms    6    # we include ghost atoms...
NumberOfSpecies  2    # we have to define a new specie, with its pseudopotential!!

%block ChemicalSpeciesLabel
    1   6  C
    2  -6  GC    # ghost orbital. You could take an H-type ghost if you prefer...
%endblock ChemicalSpeciesLabel

# ===============================================================
# Basis set definition...

PAO.BasisSize        DZP
PAO.EnergyShift       2.0 meV
# You could define a different basis for the ghost (SZ, SZP, etc.)
# Feel free to play with these parameters at will
#
# ===============================================================

# Structural parameters...

LatticeConstant 2.476675 Ang
%block LatticeParameters
1.000  1.000  20.0  90.0  90.0  120.0
%endblock LatticeParameters

AtomicCoordinatesFormat fractional

%block AtomicCoordinatesAndAtomicSpecies
  0.33333333  0.66666667  0.5        1     # C
  0.66666667  0.33333333  0.5        1     # C
  0.33333333  0.66666667  0.55       2     # Ghost-C above
  0.66666667  0.33333333  0.55       2     # Ghost-C above
  0.33333333  0.66666667  0.45       2     # Ghost-C below
  0.66666667  0.33333333  0.45       2     # Ghost-C below
%endblock AtomicCoordinatesAndAtomicSpecies

# Simulation parameters ...

SolutionMethod         diagon

XC.Functional          LDA
XC.Authors             CA
SpinPolarized          .false.

DM.MixingWeight        0.100     # New DM amount for next SCF cycle
DM.NumberPulay         3
DM.Tolerance           5.0d-5

DM.UseSaveDM         .true.
UseSaveData              T     # default value

# Real space grid...

MeshCutoff           160.0 Ry


# K-sampling (using Monkhorst-Pack allows a better fit to the reduced dimensionality)

%block kgrid_Monkhorst_Pack
  9  0  0    0.0
  0  9  0    0.0
  0  0  1    0.0
%endblock kgrid_Monkhorst_Pack

WriteKbands    .true.
WriteBands    .true.
BandLinesScale     ReciprocalLatticeVectors

%block Bandlines
  1   0.0000000000   0.000000000   0.0000   \Gamma
 60   0.3333333333   0.333333333   0.0000   K
 30   0.5000000000   0.500000000   0.0000   M
 60   0.0000000000   1.000000000   0.0000   \Gamma
%endblock BandLines
