#
################## GENERAL SETINGS #####################################
#
        SystemName          Germanium 
        SystemLabel         md 
        NumberOfAtoms       9
        NumberOfSpecies     2
#
################## TYPE OF RUN #########################################
#
#        UseBIGDFTsolver .true.
        #MD.UseSaveXV       T
#        MD.TypeOfRun          Anneal
#        MD.AnnealOption       Temperature
#        MD.InitialTemperature 100 K
#        MD.TargetTemperature 600 K
#        MD.TauRelax       20 fs
#        MD.Initial.Time.Step      1
#        MD.Final.Time.Step        100
#        MD.Length.Time.Step       0.2 fs
#
################## WRITING #############################################
#
        WriteCoorStep   .true.
        WriteForces     .true.
        WriteMDHistory  .true.
        WriteCoorXmol   .true.
        WriteMDXmol   	.true.
	SaveRho		.true.
#
################## ACCURACY ############################################
#
        xc.functional LDA
        xc.authors CA
#       Atom.Ignore.Ghosts
        MeshCutoff  150 Ry
#
#        Psolver.verbose   .true.
# Basis:
        PAO.BasisSize SZ
        #PAO.EnergyShift 20 meV
# SCF:
	SolutionMethod       Diagon
	MaxSCFIterations       1000
	DM.MixingWeight        0.2
	DM.NumberPulay           3
	DM.Tolerance         1.d-4
	#Diag.DivideAndConquer false
        #ElectronicTemperature 5 meV
#
################## CELL ################################################
#
        LatticeConstant 10.0 Ang
	%block LatticeVectors
	1.0 0.0 0.0
	0.0 1.0 0.0
	0.0 0.0 1.0
	%endblock LatticeVectors
	LatticeConstant   5.590  Ang
	%block kgrid_Monkhorst_Pack
	1 0 0 0.0
	0 1 0 0.0
	0 0 2 0.0
	%endblock kgrid_Monkhorst_Pack
#
################## ATOM COORD. #########################################
#
	%block ChemicalSpeciesLabel
	 1  32  Ge_LDA      # Species index, atomic number, species label
	 2   1  H_LDA  
	%endblock ChemicalSpeciesLabel
	AtomicCoordinatesFormat Bohr
	%block AtomicCoordinatesAndAtomicSpecies
	 0.000000000       0.000000000       0.000000000    1
	 2.640893312       2.640893312       2.640893312    1
	 0.000000000       5.281786623       5.281786623    1
	 5.281786623       0.000000000       5.281786623    1
	 5.281786623       5.281786623       0.000000000    1
	 2.640893312       7.922679935       7.922679935    1
	 7.922679935       2.640893312       7.922679935    1
	 7.922679935       7.922679935       2.640893312    1
	 0.000000000       1.320400000       0.000000000    2
	%endblock AtomicCoordinatesAndAtomicSpecies
