#General system specifications
SystemName          CH3 molecule
SystemLabel         ch3
NumberOfAtoms       4
NumberOfSpecies     2

%block ChemicalSpeciesLabel
 1  6 C      # Species index, atomic number, species label
 2  1 H      # Species index, atomic number, species label
%endblock ChemicalSpeciesLabel

# Basis set definition
PAO.EnergyShift 200 meV
PAO.SplitNorm   0.15
PAO.BasisSize   SZ

#Atomic coordinates
AtomicCoordinatesFormat  Ang

%block AtomicCoordinatesAndAtomicSpecies
    0.0215    0.0215   -0.2881   1           
    1.1712   -0.2891   -0.2441   2           
   -0.2891    1.1712   -0.2441   2          
   -0.8172   -0.8172   -0.4140   2
%endblock AtomicCoordinatesAndAtomicSpecies

#Real space grid 
MeshCutoff 125.0 Ry

# Convergence of SCF 
MaxSCFIterations 50
DM.MixingWeight  0.4
DM.NumberPulay  2

# Type of solution
SolutionMethod diagon

#Geometrical optimization
MD.TypeOfRun CG
MD.NumCGsteps  50
MD.MaxCGDispl         0.1 Bohr
MD.MaxForceTol        0.04d0 eV/Ang

SaveRho .true.                 # -- Output of charge density
%block LocalDensityOfStates    # -- LDOS ('charge' for an energy window)
-6.00  -3.00 eV
%endblock LocalDensityOfStates

