# 
# FDF for a BN sheet
# 

SystemName          BN-2 atom
SystemLabel         BN

NumberOfSpecies     2
NumberOfAtoms       2

%block ChemicalSpeciesLabel
 1  5  B 10.811
 2  7  N 14.0067
%endblock ChemicalSpeciesLabel

PAO.BasisSize       SZ

MeshCutoff          200.0 Ry
MaxSCFIterations    500  
DM.MixingWeight      0.1 
DM.NumberPulay       5  
DM.Tolerance         1.d-5           
SolutionMethod       diagon 
DM.UseSaveDM  	     .false.	   

%block XC.hybrid
2
GGA LIBXC-00-GGA_X_PBE 1.0 0.0
GGA LIBXC-00-GGA_C_PBE 0.0 1.0
%endblock

AtomicCoordinatesFormat  ScaledCartesian
%block AtomicCoordinatesAndAtomicSpecies
	-0.00000027   -0.00000047   -0.00000000   1  10.811
	1.26872886    0.73250124   -0.00000000   2 14.0067
%endblock AtomicCoordinatesAndAtomicSpecies

LatticeConstant     1 Ang
%block LatticeVectors
        2.537457   -0.000000    0.000000
        1.268729    2.197503   -0.000000
        0.000000   -0.000000    6.679152
%endblock LatticeVectors

MD.TypeOfRun	LR
MD.FCfirst 1
MD.FClast 2

%block kgrid_Monkhorst_pack
	6	0	0	0.0
	0	6	0	0.0	
	0	0	1	0.0
%endblock
